p cnf 209 1349
100 104 111 122 0
96 106 0
131 142 0
73 86 180 184 0
84 90 128 0
64 101 113 130 0
61 132 133 137 204 0
110 139 140 141 0
81 129 169 0
79 92 118 172 0
77 93 108 0
75 97 136 0
71 112 134 177 0
126 187 0
67 87 102 157 0
63 76 115 0
60 191 0
80 123 0
59 98 143 0
144 153 199 0
151 179 0
89 155 156 0
159 161 0
82 165 167 170 0
117 120 173 0
109 174 0
146 148 176 0
178 182 188 0
68 85 91 158 189 0
65 66 103 116 0
163 190 192 0
193 195 0
83 135 166 0
124 196 197 0
78 99 175 198 0
74 150 154 200 0
69 127 181 185 201 0
62 160 202 0
203 205 206 208 0
53 54 55 58 209 0
50 51 164 0
49 119 168 0
46 47 48 171 0
44 45 107 0
43 125 186 0
41 42 0
40 114 0
-84 -122 0
-101 -122 0
-84 -101 0
-77 -132 0
-132 -136 0
-77 -136 0
-59 -72 0
-59 -155 0
-72 -155 0
-163 -189 0
-189 -193 0
-163 -193 0
-122 -132 0
-59 -189 0
-77 -84 0
-72 -84 0
-84 -163 0
-72 -77 0
-77 -163 0
-72 -163 0
-101 -136 0
-101 -155 0
-101 -193 0
-136 -155 0
-136 -193 0
-155 -193 0
-86 -111 0
-39 -111 0
-39 -86 0
-118 -133 0
-38 -133 0
-38 -118 0
-51 -209 0
-111 -133 0
-86 -118 0
-86 -209 0
-118 -209 0
-38 -39 0
-39 -51 0
-38 -51 0
-61 -110 0
-151 -183 0
-37 -190 0
-45 -145 0
-45 -61 0
-110 -145 0
-37 -151 0
-183 -190 0
-96 -142 0
-96 -152 0
-96 -180 0
-36 -96 0
-90 -96 0
-64 -96 0
-142 -152 0
-142 -180 0
-36 -142 0
-90 -142 0
-64 -142 0
-152 -180 0
-36 -152 0
-90 -152 0
-64 -152 0
-36 -180 0
-90 -180 0
-64 -180 0
-36 -90 0
-36 -64 0
-64 -90 0
-57 -139 0
-57 -169 0
-57 -172 0
-34 -57 0
-57 -108 0
-57 -75 0
-139 -169 0
-139 -172 0
-34 -139 0
-108 -139 0
-75 -139 0
-169 -172 0
-34 -169 0
-108 -169 0
-75 -169 0
-34 -172 0
-108 -172 0
-75 -172 0
-34 -108 0
-34 -75 0
-75 -108 0
-157 -187 0
-115 -187 0
-32 -187 0
-187 -191 0
-187 -194 0
-29 -187 0
-115 -157 0
-32 -157 0
-157 -191 0
-157 -194 0
-29 -157 0
-32 -115 0
-115 -191 0
-115 -194 0
-29 -115 0
-32 -191 0
-32 -194 0
-29 -32 0
-191 -194 0
-29 -191 0
-29 -194 0
-28 -207 0
-28 -52 0
-28 -165 0
-28 -120 0
-52 -207 0
-165 -207 0
-120 -207 0
-52 -165 0
-52 -120 0
-120 -165 0
-27 -178 0
-27 -85 0
-27 -103 0
-26 -27 0
-85 -178 0
-103 -178 0
-26 -178 0
-85 -103 0
-26 -85 0
-26 -103 0
-25 -78 0
-24 -78 0
-78 -200 0
-78 -201 0
-24 -25 0
-25 -200 0
-25 -201 0
-24 -200 0
-24 -201 0
-200 -201 0
-23 -43 0
-23 -42 0
-23 -40 0
-22 -23 0
-42 -43 0
-40 -43 0
-22 -43 0
-40 -42 0
-22 -42 0
-22 -40 0
-57 -96 0
-96 -187 0
-28 -96 0
-27 -96 0
-57 -187 0
-28 -57 0
-27 -57 0
-28 -187 0
-27 -187 0
-27 -28 0
-139 -142 0
-142 -157 0
-142 -207 0
-142 -178 0
-139 -157 0
-139 -207 0
-139 -178 0
-157 -207 0
-157 -178 0
-178 -207 0
-152 -169 0
-115 -152 0
-52 -152 0
-85 -152 0
-78 -152 0
-23 -152 0
-115 -169 0
-52 -169 0
-85 -169 0
-78 -169 0
-23 -169 0
-52 -115 0
-85 -115 0
-78 -115 0
-23 -115 0
-52 -85 0
-52 -78 0
-23 -52 0
-78 -85 0
-23 -85 0
-23 -78 0
-172 -180 0
-32 -180 0
-165 -180 0
-103 -180 0
-25 -180 0
-43 -180 0
-32 -172 0
-165 -172 0
-103 -172 0
-25 -172 0
-43 -172 0
-32 -165 0
-32 -103 0
-25 -32 0
-32 -43 0
-103 -165 0
-25 -165 0
-43 -165 0
-25 -103 0
-43 -103 0
-25 -43 0
-34 -36 0
-36 -191 0
-36 -120 0
-26 -36 0
-24 -36 0
-36 -42 0
-34 -191 0
-34 -120 0
-26 -34 0
-24 -34 0
-34 -42 0
-120 -191 0
-26 -191 0
-24 -191 0
-42 -191 0
-26 -120 0
-24 -120 0
-42 -120 0
-24 -26 0
-26 -42 0
-24 -42 0
-90 -108 0
-90 -194 0
-90 -200 0
-40 -90 0
-108 -194 0
-108 -200 0
-40 -108 0
-194 -200 0
-40 -194 0
-40 -200 0
-64 -75 0
-29 -64 0
-64 -201 0
-22 -64 0
-29 -75 0
-75 -201 0
-22 -75 0
-29 -201 0
-22 -29 0
-22 -201 0
-104 -131 0
-21 -104 0
-73 -104 0
-104 -128 0
-104 -130 0
-21 -131 0
-73 -131 0
-128 -131 0
-130 -131 0
-21 -73 0
-21 -128 0
-21 -130 0
-73 -128 0
-73 -130 0
-128 -130 0
-140 -204 0
-81 -204 0
-79 -204 0
-93 -204 0
-97 -204 0
-81 -140 0
-79 -140 0
-93 -140 0
-97 -140 0
-79 -81 0
-81 -93 0
-81 -97 0
-79 -93 0
-79 -97 0
-93 -97 0
-87 -112 0
-63 -112 0
-112 -162 0
-20 -112 0
-19 -112 0
-63 -87 0
-87 -162 0
-20 -87 0
-19 -87 0
-63 -162 0
-20 -63 0
-19 -63 0
-20 -162 0
-19 -162 0
-19 -20 0
-124 -166 0
-166 -198 0
-95 -166 0
-154 -166 0
-166 -181 0
-124 -198 0
-95 -124 0
-124 -154 0
-124 -181 0
-95 -198 0
-154 -198 0
-181 -198 0
-95 -154 0
-95 -181 0
-154 -181 0
-88 -160 0
-88 -203 0
-58 -88 0
-88 -168 0
-88 -171 0
-160 -203 0
-58 -160 0
-160 -168 0
-160 -171 0
-58 -203 0
-168 -203 0
-171 -203 0
-58 -168 0
-58 -171 0
-168 -171 0
-107 -147 0
-18 -107 0
-107 -186 0
-107 -114 0
-31 -107 0
-18 -147 0
-147 -186 0
-114 -147 0
-31 -147 0
-18 -186 0
-18 -114 0
-18 -31 0
-114 -186 0
-31 -186 0
-31 -114 0
-104 -204 0
-104 -112 0
-104 -166 0
-88 -104 0
-104 -107 0
-112 -204 0
-166 -204 0
-88 -204 0
-107 -204 0
-112 -166 0
-88 -112 0
-107 -112 0
-88 -166 0
-107 -166 0
-88 -107 0
-131 -140 0
-87 -131 0
-124 -131 0
-131 -160 0
-131 -147 0
-87 -140 0
-124 -140 0
-140 -160 0
-140 -147 0
-87 -124 0
-87 -160 0
-87 -147 0
-124 -160 0
-124 -147 0
-147 -160 0
-21 -81 0
-21 -63 0
-21 -198 0
-21 -203 0
-18 -21 0
-63 -81 0
-81 -198 0
-81 -203 0
-18 -81 0
-63 -198 0
-63 -203 0
-18 -63 0
-198 -203 0
-18 -198 0
-18 -203 0
-73 -79 0
-73 -162 0
-73 -95 0
-58 -73 0
-73 -186 0
-79 -162 0
-79 -95 0
-58 -79 0
-79 -186 0
-95 -162 0
-58 -162 0
-162 -186 0
-58 -95 0
-95 -186 0
-58 -186 0
-93 -128 0
-20 -128 0
-128 -154 0
-128 -168 0
-114 -128 0
-20 -93 0
-93 -154 0
-93 -168 0
-93 -114 0
-20 -154 0
-20 -168 0
-20 -114 0
-154 -168 0
-114 -154 0
-114 -168 0
-97 -130 0
-19 -130 0
-130 -181 0
-130 -171 0
-31 -130 0
-19 -97 0
-97 -181 0
-97 -171 0
-31 -97 0
-19 -181 0
-19 -171 0
-19 -31 0
-171 -181 0
-31 -181 0
-31 -171 0
-100 -106 0
-100 -113 0
-106 -113 0
-71 -126 0
-17 -71 0
-17 -126 0
-80 -121 0
-80 -98 0
-80 -144 0
-98 -121 0
-121 -144 0
-98 -144 0
-16 -176 0
-68 -176 0
-66 -176 0
-16 -68 0
-16 -66 0
-66 -68 0
-55 -205 0
-71 -100 0
-80 -100 0
-100 -176 0
-71 -80 0
-71 -176 0
-80 -176 0
-106 -126 0
-106 -121 0
-16 -106 0
-121 -126 0
-16 -126 0
-16 -121 0
-68 -98 0
-98 -205 0
-68 -205 0
-66 -144 0
-55 -144 0
-55 -66 0
-17 -113 0
-149 -184 0
-15 -149 0
-15 -184 0
-14 -159 0
-13 -159 0
-82 -159 0
-117 -159 0
-13 -14 0
-14 -82 0
-14 -117 0
-13 -82 0
-13 -117 0
-82 -117 0
-146 -182 0
-91 -146 0
-65 -146 0
-12 -146 0
-91 -182 0
-65 -182 0
-12 -182 0
-65 -91 0
-12 -91 0
-12 -65 0
-135 -196 0
-99 -135 0
-105 -135 0
-11 -135 0
-69 -135 0
-99 -196 0
-105 -196 0
-11 -196 0
-69 -196 0
-99 -105 0
-11 -99 0
-69 -99 0
-11 -105 0
-69 -105 0
-11 -69 0
-10 -62 0
-10 -206 0
-10 -54 0
-10 -50 0
-10 -48 0
-62 -206 0
-54 -62 0
-50 -62 0
-48 -62 0
-54 -206 0
-50 -206 0
-48 -206 0
-50 -54 0
-48 -54 0
-48 -50 0
-9 -44 0
-44 -70 0
-44 -125 0
-41 -44 0
-8 -44 0
-9 -70 0
-9 -125 0
-9 -41 0
-8 -9 0
-70 -125 0
-41 -70 0
-8 -70 0
-41 -125 0
-8 -125 0
-8 -41 0
-146 -159 0
-135 -159 0
-10 -159 0
-44 -159 0
-135 -146 0
-10 -146 0
-44 -146 0
-10 -135 0
-44 -135 0
-10 -44 0
-14 -182 0
-14 -196 0
-14 -62 0
-9 -14 0
-182 -196 0
-62 -182 0
-9 -182 0
-62 -196 0
-9 -196 0
-9 -62 0
-13 -149 0
-91 -149 0
-99 -149 0
-149 -206 0
-70 -149 0
-13 -91 0
-13 -99 0
-13 -206 0
-13 -70 0
-91 -99 0
-91 -206 0
-70 -91 0
-99 -206 0
-70 -99 0
-70 -206 0
-82 -184 0
-65 -184 0
-105 -184 0
-54 -184 0
-125 -184 0
-65 -82 0
-82 -105 0
-54 -82 0
-82 -125 0
-65 -105 0
-54 -65 0
-65 -125 0
-54 -105 0
-105 -125 0
-54 -125 0
-15 -117 0
-12 -15 0
-11 -15 0
-15 -50 0
-15 -41 0
-12 -117 0
-11 -117 0
-50 -117 0
-41 -117 0
-11 -12 0
-12 -50 0
-12 -41 0
-11 -50 0
-11 -41 0
-41 -50 0
-48 -69 0
-8 -69 0
-8 -48 0
-102 -177 0
-7 -199 0
-156 -199 0
-7 -156 0
-6 -167 0
-167 -174 0
-6 -174 0
-83 -197 0
-83 -150 0
-83 -185 0
-150 -197 0
-185 -197 0
-150 -185 0
-5 -202 0
-5 -49 0
-5 -47 0
-49 -202 0
-47 -202 0
-47 -49 0
-83 -177 0
-5 -177 0
-5 -83 0
-102 -197 0
-102 -202 0
-197 -202 0
-167 -199 0
-6 -7 0
-7 -150 0
-7 -49 0
-6 -150 0
-6 -49 0
-49 -150 0
-156 -174 0
-156 -185 0
-47 -156 0
-174 -185 0
-47 -174 0
-47 -185 0
-137 -141 0
-129 -137 0
-92 -137 0
-4 -137 0
-129 -141 0
-92 -141 0
-4 -141 0
-92 -129 0
-4 -129 0
-4 -92 0
-67 -134 0
-76 -134 0
-3 -134 0
-60 -134 0
-67 -76 0
-3 -67 0
-60 -67 0
-3 -76 0
-60 -76 0
-3 -60 0
-94 -123 0
-123 -143 0
-123 -153 0
-123 -179 0
-35 -123 0
-89 -123 0
-94 -143 0
-94 -153 0
-94 -179 0
-35 -94 0
-89 -94 0
-143 -153 0
-143 -179 0
-35 -143 0
-89 -143 0
-153 -179 0
-35 -153 0
-89 -153 0
-35 -179 0
-89 -179 0
-35 -89 0
-56 -161 0
-138 -161 0
-161 -170 0
-161 -173 0
-33 -161 0
-109 -161 0
-56 -138 0
-56 -170 0
-56 -173 0
-33 -56 0
-56 -109 0
-138 -170 0
-138 -173 0
-33 -138 0
-109 -138 0
-170 -173 0
-33 -170 0
-109 -170 0
-33 -173 0
-109 -173 0
-33 -109 0
-148 -188 0
-148 -158 0
-116 -148 0
-30 -148 0
-148 -192 0
-148 -195 0
-158 -188 0
-116 -188 0
-30 -188 0
-188 -192 0
-188 -195 0
-116 -158 0
-30 -158 0
-158 -192 0
-158 -195 0
-30 -116 0
-116 -192 0
-116 -195 0
-30 -192 0
-30 -195 0
-192 -195 0
-2 -175 0
-1 -175 0
-74 -175 0
-127 -175 0
-1 -2 0
-2 -74 0
-2 -127 0
-1 -74 0
-1 -127 0
-74 -127 0
-53 -208 0
-164 -208 0
-119 -208 0
-46 -208 0
-53 -164 0
-53 -119 0
-46 -53 0
-119 -164 0
-46 -164 0
-46 -119 0
-134 -137 0
-123 -137 0
-137 -161 0
-137 -148 0
-123 -134 0
-134 -161 0
-134 -148 0
-123 -161 0
-123 -148 0
-148 -161 0
-67 -141 0
-94 -141 0
-56 -141 0
-141 -188 0
-67 -94 0
-56 -67 0
-67 -188 0
-56 -94 0
-94 -188 0
-56 -188 0
-76 -129 0
-129 -143 0
-129 -138 0
-129 -158 0
-129 -175 0
-129 -208 0
-76 -143 0
-76 -138 0
-76 -158 0
-76 -175 0
-76 -208 0
-138 -143 0
-143 -158 0
-143 -175 0
-143 -208 0
-138 -158 0
-138 -175 0
-138 -208 0
-158 -175 0
-158 -208 0
-175 -208 0
-3 -92 0
-92 -153 0
-92 -170 0
-92 -116 0
-2 -92 0
-53 -92 0
-3 -153 0
-3 -170 0
-3 -116 0
-2 -3 0
-3 -53 0
-153 -170 0
-116 -153 0
-2 -153 0
-53 -153 0
-116 -170 0
-2 -170 0
-53 -170 0
-2 -116 0
-53 -116 0
-2 -53 0
-4 -60 0
-4 -179 0
-4 -173 0
-4 -30 0
-1 -4 0
-4 -164 0
-60 -179 0
-60 -173 0
-30 -60 0
-1 -60 0
-60 -164 0
-173 -179 0
-30 -179 0
-1 -179 0
-164 -179 0
-30 -173 0
-1 -173 0
-164 -173 0
-1 -30 0
-30 -164 0
-1 -164 0
-33 -35 0
-35 -192 0
-35 -74 0
-35 -119 0
-33 -192 0
-33 -74 0
-33 -119 0
-74 -192 0
-119 -192 0
-74 -119 0
-89 -109 0
-89 -195 0
-89 -127 0
-46 -89 0
-109 -195 0
-109 -127 0
-46 -109 0
-127 -195 0
-46 -195 0
-46 -127 0
-122 -132 0
-111 -133 0
-61 -110 0
-96 -142 0
-57 -96 0
-96 -139 0
-96 -187 0
-96 -157 0
-57 -142 0
-139 -142 0
-142 -187 0
-142 -157 0
-57 -139 0
-57 -187 0
-57 -157 0
-139 -187 0
-139 -157 0
-157 -187 0
-104 -131 0
-104 -204 0
-104 -140 0
-104 -112 0
-87 -104 0
-131 -204 0
-131 -140 0
-112 -131 0
-87 -131 0
-140 -204 0
-112 -204 0
-87 -204 0
-112 -140 0
-87 -140 0
-87 -112 0
-100 -106 0
-71 -100 0
-100 -126 0
-71 -106 0
-106 -126 0
-71 -126 0
-102 -177 0
-137 -141 0
-134 -137 0
-67 -137 0
-134 -141 0
-67 -141 0
-67 -134 0
-39 -86 0
-86 -118 0
-38 -86 0
-39 -118 0
-38 -39 0
-38 -118 0
-152 -180 0
-36 -152 0
-152 -169 0
-152 -172 0
-34 -152 0
-115 -152 0
-32 -152 0
-152 -191 0
-36 -180 0
-169 -180 0
-172 -180 0
-34 -180 0
-115 -180 0
-32 -180 0
-180 -191 0
-36 -169 0
-36 -172 0
-34 -36 0
-36 -115 0
-32 -36 0
-36 -191 0
-169 -172 0
-34 -169 0
-115 -169 0
-32 -169 0
-169 -191 0
-34 -172 0
-115 -172 0
-32 -172 0
-172 -191 0
-34 -115 0
-32 -34 0
-34 -191 0
-32 -115 0
-115 -191 0
-32 -191 0
-21 -73 0
-21 -81 0
-21 -79 0
-21 -63 0
-21 -162 0
-73 -81 0
-73 -79 0
-63 -73 0
-73 -162 0
-79 -81 0
-63 -81 0
-81 -162 0
-63 -79 0
-79 -162 0
-63 -162 0
-149 -184 0
-15 -149 0
-15 -184 0
-92 -129 0
-4 -129 0
-76 -129 0
-3 -129 0
-60 -129 0
-4 -92 0
-76 -92 0
-3 -92 0
-60 -92 0
-4 -76 0
-3 -4 0
-4 -60 0
-3 -76 0
-60 -76 0
-3 -60 0
-84 -101 0
-77 -84 0
-84 -136 0
-77 -101 0
-101 -136 0
-77 -136 0
-64 -90 0
-90 -108 0
-75 -90 0
-90 -194 0
-29 -90 0
-64 -108 0
-64 -75 0
-64 -194 0
-29 -64 0
-75 -108 0
-108 -194 0
-29 -108 0
-75 -194 0
-29 -75 0
-29 -194 0
-128 -130 0
-93 -128 0
-97 -128 0
-20 -128 0
-19 -128 0
-93 -130 0
-97 -130 0
-20 -130 0
-19 -130 0
-93 -97 0
-20 -93 0
-19 -93 0
-20 -97 0
-19 -97 0
-19 -20 0
-17 -113 0
-28 -207 0
-27 -28 0
-28 -178 0
-27 -207 0
-178 -207 0
-27 -178 0
-80 -121 0
-80 -176 0
-16 -80 0
-121 -176 0
-16 -121 0
-16 -176 0
-14 -159 0
-146 -159 0
-159 -182 0
-14 -146 0
-14 -182 0
-146 -182 0
-94 -123 0
-123 -161 0
-56 -123 0
-123 -148 0
-123 -188 0
-94 -161 0
-56 -94 0
-94 -148 0
-94 -188 0
-56 -161 0
-148 -161 0
-161 -188 0
-56 -148 0
-56 -188 0
-148 -188 0
-59 -189 0
-37 -151 0
-52 -165 0
-52 -120 0
-52 -85 0
-52 -103 0
-26 -52 0
-120 -165 0
-85 -165 0
-103 -165 0
-26 -165 0
-85 -120 0
-103 -120 0
-26 -120 0
-85 -103 0
-26 -85 0
-26 -103 0
-98 -144 0
-68 -98 0
-66 -98 0
-68 -144 0
-66 -144 0
-66 -68 0
-13 -82 0
-13 -117 0
-13 -91 0
-13 -65 0
-12 -13 0
-82 -117 0
-82 -91 0
-65 -82 0
-12 -82 0
-91 -117 0
-65 -117 0
-12 -117 0
-65 -91 0
-12 -91 0
-12 -65 0
-167 -199 0
-143 -153 0
-143 -179 0
-138 -143 0
-143 -170 0
-143 -173 0
-143 -158 0
-116 -143 0
-30 -143 0
-153 -179 0
-138 -153 0
-153 -170 0
-153 -173 0
-153 -158 0
-116 -153 0
-30 -153 0
-138 -179 0
-170 -179 0
-173 -179 0
-158 -179 0
-116 -179 0
-30 -179 0
-138 -170 0
-138 -173 0
-138 -158 0
-116 -138 0
-30 -138 0
-170 -173 0
-158 -170 0
-116 -170 0
-30 -170 0
-158 -173 0
-116 -173 0
-30 -173 0
-116 -158 0
-30 -158 0
-30 -116 0
-72 -155 0
-72 -163 0
-72 -193 0
-155 -163 0
-155 -193 0
-163 -193 0
-183 -190 0
-7 -156 0
-6 -7 0
-7 -174 0
-6 -156 0
-156 -174 0
-6 -174 0
-35 -89 0
-33 -35 0
-35 -109 0
-35 -192 0
-35 -195 0
-33 -89 0
-89 -109 0
-89 -192 0
-89 -195 0
-33 -109 0
-33 -192 0
-33 -195 0
-109 -192 0
-109 -195 0
-192 -195 0
-45 -145 0
-124 -166 0
-88 -166 0
-160 -166 0
-107 -166 0
-147 -166 0
-88 -124 0
-124 -160 0
-107 -124 0
-124 -147 0
-88 -160 0
-88 -107 0
-88 -147 0
-107 -160 0
-147 -160 0
-107 -147 0
-135 -196 0
-10 -135 0
-62 -135 0
-44 -135 0
-9 -135 0
-10 -196 0
-62 -196 0
-44 -196 0
-9 -196 0
-10 -62 0
-10 -44 0
-9 -10 0
-44 -62 0
-9 -62 0
-9 -44 0
-83 -197 0
-5 -83 0
-83 -202 0
-5 -197 0
-197 -202 0
-5 -202 0
-51 -209 0
-25 -78 0
-24 -78 0
-23 -78 0
-43 -78 0
-42 -78 0
-24 -25 0
-23 -25 0
-25 -43 0
-25 -42 0
-23 -24 0
-24 -43 0
-24 -42 0
-23 -43 0
-23 -42 0
-42 -43 0
-95 -198 0
-198 -203 0
-58 -198 0
-18 -198 0
-186 -198 0
-95 -203 0
-58 -95 0
-18 -95 0
-95 -186 0
-58 -203 0
-18 -203 0
-186 -203 0
-18 -58 0
-58 -186 0
-18 -186 0
-55 -205 0
-99 -105 0
-11 -99 0
-99 -206 0
-54 -99 0
-50 -99 0
-70 -99 0
-99 -125 0
-41 -99 0
-11 -105 0
-105 -206 0
-54 -105 0
-50 -105 0
-70 -105 0
-105 -125 0
-41 -105 0
-11 -206 0
-11 -54 0
-11 -50 0
-11 -70 0
-11 -125 0
-11 -41 0
-54 -206 0
-50 -206 0
-70 -206 0
-125 -206 0
-41 -206 0
-50 -54 0
-54 -70 0
-54 -125 0
-41 -54 0
-50 -70 0
-50 -125 0
-41 -50 0
-70 -125 0
-41 -70 0
-41 -125 0
-2 -175 0
-1 -175 0
-175 -208 0
-53 -175 0
-164 -175 0
-1 -2 0
-2 -208 0
-2 -53 0
-2 -164 0
-1 -208 0
-1 -53 0
-1 -164 0
-53 -208 0
-164 -208 0
-53 -164 0
-200 -201 0
-40 -200 0
-22 -200 0
-40 -201 0
-22 -201 0
-22 -40 0
-154 -181 0
-154 -168 0
-154 -171 0
-114 -154 0
-31 -154 0
-168 -181 0
-171 -181 0
-114 -181 0
-31 -181 0
-168 -171 0
-114 -168 0
-31 -168 0
-114 -171 0
-31 -171 0
-31 -114 0
-48 -69 0
-8 -69 0
-8 -48 0
-150 -185 0
-49 -150 0
-47 -150 0
-49 -185 0
-47 -185 0
-47 -49 0
-74 -127 0
-74 -119 0
-46 -74 0
-119 -127 0
-46 -127 0
-46 -119 0
